TCS_Benchmarks/redos_fix/snort1_output_distinct_2727_2726_0_0.txt
([^\n\r]+)([^\n\r]*)
([^\n\r]+)(=[jJ][aA][vV][aA][sS][cC][rR][iI][pP][tT]:)([^\n\r]*)